asp/input/in_40_20_6_2.lp
#const n = 40.
#const k = 20.
#const h = 6.
tile(1,5,19).
tile(2,17,19).
tile(3,2,10).
tile(4,11,15).
tile(5,20,16).
tile(6,9,20).
tile(7,4,9).
tile(8,5,7).
tile(9,3,20).
tile(10,17,8).
tile(11,20,3).
tile(12,3,8).
tile(13,14,4).
tile(14,12,13).
tile(15,6,2).
tile(16,3,3).
tile(17,9,9).
tile(18,9,17).
tile(19,11,20).
tile(20,12,18).
tile(21,1,1).
tile(22,6,1).
tile(23,10,15).
tile(24,20,3).
tile(25,18,20).
tile(26,4,20).
tile(27,17,4).
tile(28,14,14).
tile(29,15,15).
tile(30,20,13).
tile(31,8,2).
tile(32,9,1).
tile(33,13,2).
tile(34,20,10).
tile(35,6,16).
tile(36,4,9).
tile(37,10,10).
tile(38,15,1).
tile(39,15,7).
tile(40,12,1).
