minizinc/input/in_40_20_6_2.dzn
n = 40;
k = 20;
h = 6;
tiles = array2d(1..n, 1..2,
[ 5,19
, 17,19
, 2,10
, 11,15
, 20,16
, 9,20
, 4,9
, 5,7
, 3,20
, 17,8
, 20,3
, 3,8
, 14,4
, 12,13
, 6,2
, 3,3
, 9,9
, 9,17
, 11,20
, 12,18
, 1,1
, 6,1
, 10,15
, 20,3
, 18,20
, 4,20
, 17,4
, 14,14
, 15,15
, 20,13
, 8,2
, 9,1
, 13,2
, 20,10
, 6,16
, 4,9
, 10,10
, 15,1
, 15,7
, 12,1
]);